Set parameter TSPort to value 51199
Set parameter TokenServer to value "open-license1.lanl.gov"
Set parameter TimeLimit to value 8192
Set parameter Threads to value 1
Gurobi Optimizer version 10.0.3 build v10.0.3rc0 (linux64)

CPU model: Intel(R) Xeon(R) CPU E5-2695 v4 @ 2.10GHz, instruction set [SSE2|AVX|AVX2]
Thread count: 36 physical cores, 72 logical processors, using up to 1 threads

Optimize a model with 0 rows, 2396 columns and 0 nonzeros
Model fingerprint: 0xd86366d7
Model has 11083 quadratic objective terms
Variable types: 0 continuous, 2396 integer (2396 binary)
Coefficient statistics:
  Matrix range     [0e+00, 0e+00]
  Objective range  [2e+00, 3e+01]
  QObjective range [8e+00, 8e+00]
  Bounds range     [1e+00, 1e+00]
  RHS range        [0e+00, 0e+00]
Found heuristic solution: objective 0.0000000
Found heuristic solution: objective -4068.000000
Found heuristic solution: objective -14786.00000
Found heuristic solution: objective -14838.00000
Presolve time: 0.36s
Presolved: 11083 rows, 13479 columns, 33249 nonzeros
Variable types: 0 continuous, 13479 integer (13479 binary)

Root relaxation: objective -2.074600e+04, 3448 iterations, 0.05 seconds (0.02 work units)

    Nodes    |    Current Node    |     Objective Bounds      |     Work
 Expl Unexpl |  Obj  Depth IntInf | Incumbent    BestBd   Gap | It/Node Time

     0     0 -20746.000    0 2396 -14838.000 -20746.000  39.8%     -    0s
     0     0 -19341.500    0 3098 -14838.000 -19341.500  30.4%     -    1s
     0     0 -19190.000    0 3176 -14838.000 -19190.000  29.3%     -    1s
     0     0 -19188.000    0 3177 -14838.000 -19188.000  29.3%     -    1s
     0     0 -18969.833    0 3338 -14838.000 -18969.833  27.8%     -    2s
     0     0 -18969.833    0 3309 -14838.000 -18969.833  27.8%     -    2s
     0     2 -18969.833    0 3306 -14838.000 -18969.833  27.8%     -    3s
    82    84 -18577.833   41 3690 -14838.000 -18955.833  27.8%   154    5s
   378   380 -17345.750  189 4468 -14838.000 -18955.833  27.8%  97.5   10s
   675   677 -16321.000  338 4710 -14838.000 -18955.833  27.8%  82.3   15s
   837   839 -15842.500  419 4778 -14838.000 -18955.833  27.8%  76.8   20s
  1120  1122 -15209.000  562 4192 -14838.000 -18955.833  27.8%  68.7   25s
H 1328  1314                    -14840.00000 -18955.833  27.7%  63.2   27s
  1374  1313 -18149.500   89 2396 -14840.000 -18954.833  27.7%  61.7   31s
  1378  1316 -17109.250  220 4124 -14840.000 -17995.477  21.3%  61.5   36s
  1384  1320 -15241.500  556 4641 -14840.000 -17638.214  18.9%  61.3   46s
  1385  1321 -16849.250  259 4992 -14840.000 -17555.979  18.3%  61.2   54s
  1386  1321 -16581.250  297 5093 -14840.000 -17535.442  18.2%  61.2   57s
  1388  1323 -17528.921   42 5300 -14840.000 -17528.921  18.1%  61.1   60s
  1399  1330 -15986.500  397 5861 -14840.000 -17269.286  16.4%  60.6  102s
  1400  1331 -15146.000  576 6219 -14840.000 -17202.119  15.9%  60.6  139s
  1401  1331 -16881.250  254 6476 -14840.000 -17184.264  15.8%  60.5  149s
  1402  1332 -15140.000  577 6582 -14840.000 -17179.222  15.8%  60.5  155s
  1404  1333 -17175.708  120 6699 -14840.000 -17175.708  15.7%  60.4  162s
  1406  1335 -17175.014   32 6753 -14840.000 -17175.014  15.7%  60.3  165s
  1410  1337 -16721.250  277 7102 -14840.000 -16970.353  14.4%  60.1  246s
  1411  1338 -16925.170   40 7522 -14840.000 -16925.170  14.1%  60.1  310s
  1412  1339 -14885.667  649 7599 -14840.000 -16915.486  14.0%  60.1  330s
  1413  1339 -16911.892  246 7700 -14840.000 -16911.892  14.0%  60.0  339s
  1414  1340 -16910.745  204 7809 -14840.000 -16910.745  14.0%  60.0  345s
  1416  1341 -15117.000  580 7828 -14840.000 -16909.833  13.9%  59.9  351s
  1421  1345 -16909.678  213 7913 -14840.000 -16909.678  13.9%  59.7  356s
  1422  1345 -14870.667  655 8269 -14840.000 -16740.033  12.8%  59.6  475s
  1423  1346 -16672.250  284 8815 -14840.000 -16705.872  12.6%  59.6  556s
  1424  1347 -16696.306   47 8934 -14840.000 -16696.306  12.5%  59.5  589s
  1425  1347 -15227.500  560 9011 -14840.000 -16693.735  12.5%  59.5  602s
  1426  1348 -16693.085  211 9091 -14840.000 -16693.085  12.5%  59.5  608s
  1427  1349 -16692.756  253 9151 -14840.000 -16692.756  12.5%  59.4  611s
  1429  1350 -16692.528  154 9162 -14840.000 -16692.528  12.5%  59.3  616s
  1433  1353 -16402.000  326 9170 -14840.000 -16692.395  12.5%  59.2  620s
  1434  1353 -14898.667  645 9349 -14840.000 -16603.238  11.9%  59.1  739s
  1435  1354 -16586.880  261 9521 -14840.000 -16586.880  11.8%  59.1  811s
  1436  1355 -14867.667  656 9703 -14840.000 -16583.501  11.7%  59.1  832s
  1437  1355 -15675.750  462 9765 -14840.000 -16582.650  11.7%  59.0  841s
  1438  1356 -16582.292  240 9857 -14840.000 -16582.292  11.7%  59.0  846s
  1440  1357 -14927.667  632 9879 -14840.000 -16582.013  11.7%  58.9  852s
  1443  1359 -16581.978   80 9937 -14840.000 -16581.978  11.7%  58.8  855s
  1444  1360 -16509.446  159 9999 -14840.000 -16509.446  11.2%  58.7  977s
  1445  1361 -16179.000  363 10342 -14840.000 -16496.685  11.2%  58.7 1035s
  1446  1361 -15052.000  595 10385 -14840.000 -16494.018  11.1%  58.6 1055s
  1447  1362 -15073.000  590 10432 -14840.000 -16493.219  11.1%  58.6 1065s
  1448  1363 -15704.250  454 10473 -14840.000 -16492.763  11.1%  58.6 1073s
  1449  1363 -16492.586   79 10510 -14840.000 -16492.586  11.1%  58.5 1077s
  1451  1365 -14932.667  629 10519 -14840.000 -16492.492  11.1%  58.4 1081s
  1454  1367 -15383.500  526 10614 -14840.000 -16438.329  10.8%  58.3 1208s
  1455  1367 -16428.105  200 10775 -14840.000 -16428.105  10.7%  58.3 1279s
  1456  1368 -16425.970  312 10774 -14840.000 -16425.970  10.7%  58.2 1300s
  1457  1369 -15671.750  466 10881 -14840.000 -16425.234  10.7%  58.2 1309s
  1458  1369 -16376.000  330 10920 -14840.000 -16425.020  10.7%  58.2 1316s
  1460  1371 -16424.905  101 10942 -14840.000 -16424.905  10.7%  58.1 1320s
  1463  1373 -16390.690   76 10831 -14840.000 -16390.690  10.4%  58.0 1436s
  1464  1373 -15773.000  436 11049 -14840.000 -16382.465  10.4%  57.9 1503s
  1465  1374 -15419.500  521 11081 -14840.000 -16381.333  10.4%  57.9 1518s
  1466  1375 -16380.972  323 11092 -14840.000 -16380.972  10.4%  57.8 1525s
  1468  1376 -16057.500  384 11155 -14840.000 -16380.833  10.4%  57.8 1533s
  1469  1377 -16380.819  160 11157 -14840.000 -16380.819  10.4%  57.7 1535s
  1471  1378 -16198.000  360 11146 -14840.000 -16346.216  10.1%  57.6 1662s
  1472  1379 -16037.500  387 11249 -14840.000 -16339.894  10.1%  57.6 1722s
  1473  1379 -15711.250  452 11252 -14840.000 -16338.837  10.1%  57.6 1738s
  1474  1380 -16338.400   89 11278 -14840.000 -16338.400  10.1%  57.5 1750s
  1476  1381 -16338.276  103 11329 -14840.000 -16338.276  10.1%  57.5 1756s
  1478  1383 -16338.261  220 11346 -14840.000 -16338.261  10.1%  57.4 1761s
  1479  1383 -16311.023  129 11290 -14840.000 -16311.023  9.91%  57.3 1884s
  1480  1384 -16141.000  370 11403 -14840.000 -16305.172  9.87%  57.3 1950s
  1481  1385 -15091.000  586 11430 -14840.000 -16304.115  9.87%  57.3 1973s
  1482  1385 -16303.926  324 11477 -14840.000 -16303.926  9.86%  57.2 1979s
  1483  1386 -15466.500  511 11483 -14840.000 -16303.826  9.86%  57.2 1983s
  1484  1387 -15241.500  556 11502 -14840.000 -16303.771  9.86%  57.1 1987s
  1486  1388 -16303.734  297 11523 -14840.000 -16303.734  9.86%  57.1 1990s
  1488  1389 -16282.904   42 11410 -14840.000 -16282.904  9.72%  57.0 2106s
  1489  1390 -16277.842  312 11499 -14840.000 -16277.842  9.69%  56.9 2167s
  1490  1391 -16276.878  178 11558 -14840.000 -16276.878  9.68%  56.9 2185s
  1491  1391 -16276.589  343 11559 -14840.000 -16276.589  9.68%  56.9 2193s
  1492  1392 -15089.000  585 11587 -14840.000 -16276.477  9.68%  56.8 2197s
  1494  1393 -16276.433   31 11616 -14840.000 -16276.433  9.68%  56.8 2200s
  1496  1395 -16257.308  241 11518 -14840.000 -16257.308  9.55%  56.7 2315s
  1497  1395 -15153.000  575 11590 -14840.000 -16253.440  9.52%  56.6 2363s
  1498  1396 -16252.577  274 11618 -14840.000 -16252.577  9.52%  56.6 2380s
  1499  1397 -15986.500  397 11679 -14840.000 -16252.281  9.52%  56.6 2388s
  1500  1397 -15146.000  576 11701 -14840.000 -16252.217  9.52%  56.5 2392s
  1503  1399 -16252.188  337 11704 -14840.000 -16252.188  9.52%  56.4 2396s
  1504  1400 -16238.497  120 11562 -14840.000 -16238.497  9.42%  56.4 2491s
  1505  1401 -15313.500  542 11666 -14840.000 -16235.525  9.40%  56.3 2533s
  1506  1401 -16234.861   32 11710 -14840.000 -16234.861  9.40%  56.3 2547s
  1507  1402 -16234.715  141 11730 -14840.000 -16234.715  9.40%  56.3 2551s
  1508  1403 -15034.000  600 11726 -14840.000 -16234.628  9.40%  56.2 2555s
  1511  1405 -16220.800   40 11645 -14840.000 -16220.800  9.30%  56.1 2670s
  1512  1405 -14885.667  649 11724 -14840.000 -16217.875  9.28%  56.1 2711s
  1513  1406 -16217.314  246 11776 -14840.000 -16217.314  9.28%  56.0 2724s
  1514  1407 -16217.168  204 11783 -14840.000 -16217.168  9.28%  56.0 2729s
  1515  1407 -16217.106  293 11794 -14840.000 -16217.106  9.28%  56.0 2732s
  1518  1409 -14979.667  615 11804 -14840.000 -16217.082  9.28%  55.9 2735s
  1519  1410 -16206.897  256 11770 -14840.000 -16206.897  9.21%  55.8 2826s
  1520  1411 -15900.500  411 11807 -14840.000 -16204.323  9.19%  55.8 2874s
  1521  1411 -16203.740  213 11857 -14840.000 -16203.740  9.19%  55.8 2889s
  1522  1412 -14870.667  655 11895 -14840.000 -16203.587  9.19%  55.7 2895s
  1524  1413 -16203.496   47 11900 -14840.000 -16203.496  9.19%  55.6 2902s
  1527  1415 -16192.682  253 11785 -14840.000 -16192.682  9.12%  55.5 3005s
  1528  1416 -16190.493  156 11842 -14840.000 -16190.493  9.10%  55.5 3040s
  1529  1417 -16189.991  154 11873 -14840.000 -16189.991  9.10%  55.5 3053s
  1530  1417 -14912.667  635 11905 -14840.000 -16189.850  9.10%  55.4 3061s
  1531  1418 -16189.805  229 11914 -14840.000 -16189.805  9.10%  55.4 3065s
  1535  1421 -16180.391  261 11795 -14840.000 -16180.391  9.03%  55.2 3166s
  1536  1421 -14867.667  656 11875 -14840.000 -16178.261  9.02%  55.2 3205s
  1537  1422 -15675.750  462 11907 -14840.000 -16177.753  9.01%  55.2 3222s
  1538  1423 -16177.628  240 11909 -14840.000 -16177.628  9.01%  55.1 3227s
  1539  1423 -16177.592  158 11931 -14840.000 -16177.592  9.01%  55.1 3231s
  1542  1425 -16167.868  330 11870 -14840.000 -16167.868  8.95%  55.0 3336s
  1543  1426 -16165.551   80 11924 -14840.000 -16165.551  8.93%  55.0 3380s
  1544  1427 -16165.183  159 11956 -14840.000 -16165.183  8.93%  54.9 3392s
  1545  1427 -16165.096  363 11977 -14840.000 -16165.096  8.93%  54.9 3396s
  1546  1428 -15052.000  595 11983 -14840.000 -16165.061  8.93%  54.8 3400s
  1548  1429 -15704.250  454 11978 -14840.000 -16164.719  8.93%  54.8 3410s
  1550  1431 -15827.500  424 12004 -14840.000 -16164.629  8.93%  54.7 3415s
  1561  1440 -16164.625  283 3875 -14840.000 -16164.625  8.93%  1442 3421s
  1562  1440 -16164.625   49 4732 -14840.000 -16164.625  8.93%  1441 3433s
  1563  1441 -16164.625   76 5937 -14840.000 -16164.625  8.93%  1440 3473s
  1564  1442 -15773.000  436 7961 -14840.000 -16164.625  8.93%  1439 3582s
  1565  1442 -15419.500  521 9492 -14840.000 -16164.625  8.93%  1439 3727s
  1566  1443 -16164.625  323 11128 -14840.000 -16164.625  8.93%  1438 3954s
  1567  1444 -16164.625  186 11607 -14840.000 -16164.625  8.93%  1437 4157s
  1568  1444 -16057.500  384 11794 -14840.000 -16164.625  8.93%  1436 4259s
  1569  1445 -16164.625  160 11856 -14840.000 -16164.625  8.93%  1435 4308s
  1570  1446 -16164.625  223 11908 -14840.000 -16164.625  8.93%  1434 4330s
  1571  1446 -16164.625  360 11943 -14840.000 -16164.625  8.93%  1433 4339s
  1572  1447 -16037.500  387 11958 -14840.000 -16164.625  8.93%  1432 4345s
  1574  1448 -16164.625   89 11993 -14840.000 -16164.625  8.93%  1430 4350s
  1576  1450 -16164.625  103 12004 -14840.000 -16164.625  8.93%  1428 4355s
  1577  1450 -15840.000  421 11951 -14840.000 -16145.608  8.80%  1428 4501s
  1578  1451 -16143.296  220 11935 -14840.000 -16143.296  8.78%  1427 4544s
  1579  1452 -16142.612  129 11977 -14840.000 -16142.612  8.78%  1426 4562s
  1580  1452 -16141.000  370 12007 -14840.000 -16142.472  8.78%  1425 4569s
  1581  1453 -15091.000  586 12017 -14840.000 -16142.418  8.78%  1424 4573s
  1582  1454 -16142.343  324 12013 -14840.000 -16142.343  8.78%  1423 4576s
  1583  1454 -15466.500  511 12025 -14840.000 -16142.340  8.78%  1422 4580s
  1584  1455 -15241.500  556 11987 -14840.000 -16128.277  8.68%  1421 4710s
  1585  1456 -16125.850  259 12018 -14840.000 -16125.850  8.66%  1420 4760s
  1586  1456 -16125.399  297 12079 -14840.000 -16125.399  8.66%  1419 4778s
  1587  1457 -16125.311   17 12103 -14840.000 -16125.311  8.66%  1419 4784s
  1588  1458 -16125.282   42 12104 -14840.000 -16125.282  8.66%  1418 4787s
  1589  1458 -16125.259  312 12103 -14840.000 -16125.259  8.66%  1417 4790s
  1591  1460 -16125.250  343 12116 -14840.000 -16125.250  8.66%  1415 4795s
  1592  1460 -15089.000  585 12015 -14840.000 -16114.242  8.59%  1414 4917s
  1593  1461 -16112.647  107 12058 -14840.000 -16112.647  8.58%  1413 4957s
  1594  1462 -16112.277   31 12091 -14840.000 -16112.277  8.57%  1412 4973s
  1595  1462 -15748.000  444 12102 -14840.000 -16112.190  8.57%  1411 4980s
  1597  1464 -15153.000  575 12112 -14840.000 -16112.104  8.57%  1410 4987s
  1598  1464 -16112.099  274 12126 -14840.000 -16112.099  8.57%  1409 4992s
  1599  1465 -15986.500  397 12110 -14840.000 -16104.176  8.52%  1408 5092s
  1600  1466 -15146.000  576 12132 -14840.000 -16102.480  8.51%  1407 5134s
  1601  1466 -16102.173  254 12158 -14840.000 -16102.173  8.51%  1406 5149s
  1602  1467 -15140.000  577 12179 -14840.000 -16102.107  8.50%  1405 5154s
  1603  1468 -16102.062  337 12193 -14840.000 -16102.062  8.50%  1404 5158s
  1604  1468 -16102.035  120 12203 -14840.000 -16102.035  8.50%  1404 5160s
  1607  1470 -16102.006  141 12201 -14840.000 -16102.006  8.50%  1401 5165s
  1609  1472 -14933.667  628 12083 -14840.000 -16093.444  8.45%  1399 5277s
  1610  1472 -16091.635  277 12197 -14840.000 -16091.635  8.43%  1398 5323s
  1611  1473 -16091.331   40 12174 -14840.000 -16091.331  8.43%  1397 5336s
  1612  1474 -14885.667  649 12186 -14840.000 -16091.279  8.43%  1397 5342s
  1614  1475 -16091.250  204 12201 -14840.000 -16091.250  8.43%  1395 5347s
  1616  1476 -15117.000  580 12216 -14840.000 -16091.240  8.43%  1393 5353s
  1617  1477 -16084.234   91 12157 -14840.000 -16084.234  8.38%  1392 5453s
  1618  1478 -14979.667  615 12219 -14840.000 -16083.163  8.38%  1391 5487s
  1619  1478 -16083.009  256 12241 -14840.000 -16083.009  8.38%  1391 5496s
  1620  1479 -15900.500  411 12250 -14840.000 -16082.971  8.38%  1390 5501s
  1622  1480 -14870.667  655 12268 -14840.000 -16082.949  8.38%  1388 5508s
  1623  1481 -16076.085  284 12168 -14840.000 -16076.085  8.33%  1387 5603s
  1624  1482 -16074.535   47 12218 -14840.000 -16074.535  8.32%  1386 5647s
  1625  1482 -15227.500  560 12237 -14840.000 -16074.264  8.32%  1385 5660s
  1627  1484 -16074.195  253 12271 -14840.000 -16074.195  8.32%  1384 5667s
  1629  1485 -16074.185  154 12287 -14840.000 -16074.185  8.32%  1382 5672s
  1630  1486 -14912.667  635 12205 -14840.000 -16068.684  8.28%  1381 5759s
  1631  1486 -16067.359  229 12255 -14840.000 -16067.359  8.27%  1380 5800s
  1632  1487 -16067.073  322 12254 -14840.000 -16067.073  8.27%  1379 5815s
  1633  1488 -16066.973  326 12299 -14840.000 -16066.973  8.27%  1379 5823s
  1634  1488 -14898.667  645 12322 -14840.000 -16066.933  8.27%  1378 5827s
  1636  1490 -14867.667  656 12332 -14840.000 -16066.922  8.27%  1376 5834s
  1637  1490 -15675.750  462 12262 -14840.000 -16062.032  8.23%  1375 5922s
  1638  1491 -16061.289  240 12310 -14840.000 -16061.289  8.23%  1374 5949s
  1639  1492 -16061.147  158 12345 -14840.000 -16061.147  8.23%  1374 5958s
  1640  1492 -14927.667  632 12358 -14840.000 -16061.112  8.23%  1373 5962s
  1641  1493 -16061.099  321 12376 -14840.000 -16061.099  8.23%  1372 5965s
  1642  1494 -16061.096  330 12375 -14840.000 -16061.096  8.23%  1371 5970s
  1643  1494 -16057.273   80 12270 -14840.000 -16057.273  8.20%  1370 6045s
  1644  1495 -16056.413  159 12292 -14840.000 -16056.413  8.20%  1369 6075s
  1645  1496 -16056.207  363 12313 -14840.000 -16056.207  8.20%  1369 6088s
  1646  1496 -15052.000  595 12335 -14840.000 -16056.168  8.20%  1368 6093s
  1647  1497 -15073.000  590 12356 -14840.000 -16056.153  8.20%  1367 6095s
  1649  1498 -16056.145   79 12359 -14840.000 -16056.145  8.20%  1365 6102s
  1650  1499 -15827.500  424 12301 -14840.000 -16052.359  8.17%  1364 6175s
  1651  1500 -14932.667  629 12350 -14840.000 -16051.291  8.16%  1364 6210s
  1652  1500 -16051.094  243 12393 -14840.000 -16051.094  8.16%  1363 6221s
  1653  1501 -16051.043  105 12400 -14840.000 -16051.043  8.16%  1362 6227s
  1654  1502 -15383.500  526 12402 -14840.000 -16051.023  8.16%  1361 6230s
  1655  1502 -16051.019  200 12420 -14840.000 -16051.019  8.16%  1360 6235s
  1656  1503 -16047.838  312 12339 -14840.000 -16047.838  8.14%  1359 6300s
  1657  1504 -15671.750  466 12372 -14840.000 -16047.159  8.13%  1359 6326s
  1658  1504 -16047.045  330 12403 -14840.000 -16047.045  8.13%  1358 6335s
  1660  1506 -16046.995  101 12429 -14840.000 -16046.995  8.13%  1356 6342s
  1661  1506 -16046.991  283 12440 -14840.000 -16046.991  8.13%  1355 6347s
  1662  1507 -16043.942   49 12336 -14840.000 -16043.942  8.11%  1355 6405s
  1663  1508 -16043.092   76 12356 -14840.000 -16043.092  8.11%  1354 6434s
  1664  1508 -15773.000  436 12377 -14840.000 -16042.902  8.11%  1353 6446s
  1665  1509 -15419.500  521 12382 -14840.000 -16042.851  8.11%  1352 6450s
  1667  1510 -16042.837  186 12393 -14840.000 -16042.837  8.11%  1350 6458s
  1668  1511 -16040.524  384 12357 -14840.000 -16040.524  8.09%  1350 6511s
  1669  1512 -16039.897  160 12377 -14840.000 -16039.897  8.09%  1349 6536s
  1670  1512 -16039.775  223 12403 -14840.000 -16039.775  8.08%  1348 6545s
  1672  1514 -16037.500  387 12418 -14840.000 -16039.727  8.08%  1346 6552s
  1673  1514 -15711.250  452 12417 -14840.000 -16039.722  8.08%  1346 6555s
  1674  1515 -16037.742   89 12354 -14840.000 -16037.742  8.07%  1345 6602s
  1675  1516 -16037.230  259 12393 -14840.000 -16037.230  8.07%  1344 6625s
  1676  1516 -16037.110  103 12431 -14840.000 -16037.110  8.07%  1343 6634s
  1677  1517 -15840.000  421 12436 -14840.000 -16037.066  8.07%  1342 6638s
  1678  1518 -16037.042  220 12456 -14840.000 -16037.042  8.07%  1342 6642s
  1679  1518 -16037.037  129 12468 -14840.000 -16037.037  8.07%  1341 6646s
  1680  1519 -16035.215  370 12371 -14840.000 -16035.215  8.05%  1340 6690s
  1681  1520 -15091.000  586 12417 -14840.000 -16034.778  8.05%  1339 6712s
  1682  1520 -16034.658  324 12444 -14840.000 -16034.658  8.05%  1338 6721s
  1683  1521 -15466.500  511 12468 -14840.000 -16034.624  8.05%  1338 6725s
  1686  1523 -16034.595  297 12492 -14840.000 -16034.595  8.05%  1335 6733s
  1687  1524 -16031.838   17 12385 -14840.000 -16031.838  8.03%  1334 6791s
  1688  1524 -16031.079   42 12418 -14840.000 -16031.079  8.03%  1334 6819s
  1689  1525 -16030.969  312 12446 -14840.000 -16030.969  8.03%  1333 6828s
  1690  1526 -16030.944  178 12459 -14840.000 -16030.944  8.03%  1332 6831s
  1692  1527 -15089.000  585 12460 -14840.000 -16030.935  8.03%  1331 6836s
  1693  1528 -16028.757  107 12383 -14840.000 -16028.757  8.01%  1330 6893s
  1694  1528 -16028.121   31 12452 -14840.000 -16028.121  8.01%  1329 6919s
  1695  1529 -15748.000  444 12463 -14840.000 -16028.014  8.01%  1328 6929s
  1696  1530 -16027.980  241 12468 -14840.000 -16027.980  8.01%  1327 6934s
  1697  1530 -15153.000  575 12476 -14840.000 -16027.966  8.01%  1327 6937s
  1699  1532 -15986.500  397 12479 -14840.000 -16027.954  8.01%  1325 6943s
  1700  1532 -15146.000  576 12420 -14840.000 -16026.747  8.00%  1324 6980s
  1701  1533 -16026.313  254 12452 -14840.000 -16026.313  7.99%  1323 7002s
  1702  1534 -15140.000  577 12471 -14840.000 -16026.240  7.99%  1323 7009s
  1703  1534 -16026.218  337 12483 -14840.000 -16026.218  7.99%  1322 7011s
  1705  1536 -15313.500  542 12495 -14840.000 -16026.210  7.99%  1320 7016s
  1706  1536 -16024.638   32 12421 -14840.000 -16024.638  7.98%  1320 7058s
  1707  1537 -16024.278  141 12453 -14840.000 -16024.278  7.98%  1319 7077s
  1708  1538 -15034.000  600 12487 -14840.000 -16024.226  7.98%  1318 7083s
  1709  1538 -14933.667  628 12498 -14840.000 -16024.208  7.98%  1317 7086s
  1711  1540 -16024.197   40 12503 -14840.000 -16024.197  7.98%  1316 7091s
  1712  1540 -14885.667  649 12437 -14840.000 -16022.373  7.97%  1315 7142s
  1713  1541 -16021.970  246 12484 -14840.000 -16021.970  7.96%  1314 7163s
  1714  1542 -16021.892  204 12528 -14840.000 -16021.892  7.96%  1313 7170s
  1715  1542 -16021.850  293 12519 -14840.000 -16021.850  7.96%  1313 7175s
  1717  1544 -16021.836   91 12533 -14840.000 -16021.836  7.96%  1311 7183s
  1718  1544 -14979.667  615 12477 -14840.000 -16020.258  7.95%  1310 7230s
  1719  1545 -16019.860  256 12513 -14840.000 -16019.860  7.95%  1310 7250s
  1720  1546 -15900.500  411 12527 -14840.000 -16019.752  7.95%  1309 7258s
  1721  1546 -16019.718  213 12552 -14840.000 -16019.718  7.95%  1308 7262s
  1722  1547 -14870.667  655 12564 -14840.000 -16019.705  7.95%  1307 7265s
  1724  1548 -16018.052   47 12472 -14840.000 -16018.052  7.94%  1306 7317s
  1725  1549 -15227.500  560 12525 -14840.000 -16017.571  7.94%  1305 7341s
  1726  1550 -16017.463  211 12519 -14840.000 -16017.463  7.93%  1304 7350s
  1728  1551 -16017.425  156 12553 -14840.000 -16017.425  7.93%  1303 7356s
  1729  1552 -16017.420  154 12564 -14840.000 -16017.420  7.93%  1302 7360s
  1730  1552 -14912.667  635 12475 -14840.000 -16016.061  7.92%  1301 7399s
  1731  1553 -16015.625  229 12491 -14840.000 -16015.625  7.92%  1301 7421s
  1732  1554 -16015.483  322 12515 -14840.000 -16015.483  7.92%  1300 7431s
  1733  1554 -16015.452  326 12523 -14840.000 -16015.452  7.92%  1299 7435s
  1735  1556 -16015.440  261 12536 -14840.000 -16015.440  7.92%  1298 7442s
  1736  1556 -14867.667  656 12481 -14840.000 -16013.448  7.91%  1297 7497s
  1737  1557 -15675.750  462 12489 -14840.000 -16012.859  7.90%  1296 7522s
  1738  1558 -16012.694  240 12547 -14840.000 -16012.694  7.90%  1295 7533s
  1739  1558 -16012.655  158 12540 -14840.000 -16012.655  7.90%  1295 7538s
  1740  1559 -14927.667  632 12555 -14840.000 -16012.638  7.90%  1294 7541s
  1741  1560 -16012.634  321 12564 -14840.000 -16012.634  7.90%  1293 7545s
  1742  1560 -16010.575  330 12477 -14840.000 -16010.575  7.89%  1292 7602s
  1743  1561 -16009.844   80 12533 -14840.000 -16009.844  7.88%  1292 7632s
  1744  1562 -16009.690  159 12541 -14840.000 -16009.690  7.88%  1291 7644s
  1745  1562 -16009.637  363 12553 -14840.000 -16009.637  7.88%  1290 7649s
  1746  1563 -15052.000  595 12553 -14840.000 -16009.619  7.88%  1289 7652s
  1747  1564 -15073.000  590 12555 -14840.000 -16009.616  7.88%  1289 7657s
  1748  1564 -15704.250  454 12493 -14840.000 -16008.002  7.87%  1288 7705s
  1749  1565 -16007.617   79 12526 -14840.000 -16007.617  7.87%  1287 7725s
  1750  1566 -15827.500  424 12544 -14840.000 -16007.553  7.87%  1286 7731s
  1751  1566 -14932.667  629 12553 -14840.000 -16007.530  7.87%  1286 7735s
  1753  1568 -16007.507  105 12553 -14840.000 -16007.507  7.87%  1284 7743s
  1754  1568 -15383.500  526 12519 -14840.000 -16006.247  7.86%  1283 7787s
  1755  1569 -16005.916  200 12554 -14840.000 -16005.916  7.86%  1283 7805s
  1756  1570 -16005.842  312 12564 -14840.000 -16005.842  7.86%  1282 7812s
  1757  1570 -15671.750  466 12559 -14840.000 -16005.819  7.86%  1281 7815s
  1759  1572 -14970.333  616 12577 -14840.000 -16005.808  7.86%  1280 7822s
  1760  1572 -16004.359  101 12497 -14840.000 -16004.359  7.85%  1279 7864s
  1761  1573 -16003.911  283 12537 -14840.000 -16003.911  7.84%  1278 7886s
  1762  1574 -16003.828   49 12547 -14840.000 -16003.828  7.84%  1278 7893s
  1763  1574 -16003.806   76 12571 -14840.000 -16003.806  7.84%  1277 7896s
  1765  1576 -15419.500  521 12585 -14840.000 -16003.789  7.84%  1275 7903s
  1766  1576 -16002.659  323 12534 -14840.000 -16002.659  7.83%  1275 7940s
  1767  1577 -16002.219  186 12555 -14840.000 -16002.219  7.83%  1274 7963s
  1768  1578 -16002.131  384 12572 -14840.000 -16002.131  7.83%  1273 7971s
  1769  1578 -16002.102  160 12582 -14840.000 -16002.102  7.83%  1273 7976s
  1771  1580 -16002.093  360 12591 -14840.000 -16002.093  7.83%  1271 7985s
  1772  1580 -16001.469  387 12561 -14840.000 -16001.469  7.83%  1270 8010s
  1773  1581 -15711.250  452 12572 -14840.000 -16001.285  7.83%  1270 8022s
  1774  1582 -16001.236   89 12601 -14840.000 -16001.236  7.83%  1269 8028s
  1775  1582 -16001.226  259 12605 -14840.000 -16001.226  7.82%  1268 8030s
  1777  1584 -15840.000  421 12615 -14840.000 -16001.216  7.82%  1267 8037s
  1778  1584 -16000.693  220 12549 -14840.000 -16000.693  7.82%  1266 8060s
  1779  1585 -16000.480  129 12576 -14840.000 -16000.480  7.82%  1265 8073s
  1780  1586 -16000.450  370 12569 -14840.000 -16000.450  7.82%  1265 8077s
  1782  1587 -16000.436  324 12589 -14840.000 -16000.436  7.82%  1263 8084s
  1783  1588 -15466.500  511 12527 -14840.000 -15999.352  7.81%  1263 8121s
  1784  1588 -15241.500  556 12550 -14840.000 -15998.997  7.81%  1262 8140s
  1785  1589 -15998.929  259 12586 -14840.000 -15998.929  7.81%  1261 8147s
  1786  1590 -15998.910  297 12583 -14840.000 -15998.910  7.81%  1261 8150s
  1788  1591 -15998.899   42 12602 -14840.000 -15998.899  7.81%  1259 8158s

Cutting planes:
  Gomory: 84
  MIR: 388
  Flow cover: 5279
  Zero half: 1389
  Mod-K: 42
  RLT: 517
  BQP: 738

Explored 1788 nodes (4944524 simplex iterations) in 8192.00 seconds (13217.29 work units)
Thread count was 1 (of 72 available processors)

Solution count 5: -14840 -14838 -14786 ... 0

Time limit reached
Best objective -1.484000000000e+04, best bound -1.599800000000e+04, gap 7.8032%

User-callback calls 37959, time in user-callback 0.20 sec

BQP_SOLUTION, 2396, 11083, -5177.000000, 8192.002130, 1, -1, 1, 1, 1, -1, 1, 1, -1, 1, 1, -1, -1, 1, -1, 1, 1, -1, 1, -1, 1, 1, -1, 1, -1, 1, 1, -1, -1, 1, 1, -1, 1, 1, -1, 1, -1, -1, 1, 1, 1, 1, -1, 1, -1, 1, 1, 1, 1, 1, 1, 1, -1, 1, -1, -1, 1, -1, 1, 1, 1, 1, -1, 1, -1, -1, -1, 1, -1, 1, 1, 1, -1, 1, -1, -1, 1, -1, 1, 1, 1, 1, -1, -1, 1, -1, -1, 1, -1, 1, 1, 1, -1, -1, 1, -1, -1, -1, -1, -1, 1, 1, 1, 1, 1, -1, -1, 1, -1, 1, 1, 1, -1, -1, 1, -1, -1, 1, -1, 1, 1, 1, -1, 1, 1, -1, -1, -1, 1, -1, 1, 1, -1, 1, 1, -1, -1, 1, 1, 1, -1, 1, -1, 1, 1, -1, -1, 1, -1, -1, -1, 1, -1, 1, 1, -1, 1, -1, 1, -1, 1, 1, -1, 1, 1, -1, -1, 1, -1, 1, 1, 1, -1, 1, 1, -1, -1, 1, 1, 1, 1, 1, -1, 1, 1, -1, 1, -1, 1, -1, -1, -1, -1, 1, -1, 1, -1, -1, 1, -1, 1, -1, 1, -1, 1, -1, 1, -1, 1, -1, 1, 1, -1, 1, -1, 1, -1, -1, 1, -1, -1, 1, -1, -1, 1, 1, 1, -1, 1, -1, 1, -1, -1, -1, 1, 1, 1, 1, -1, -1, 1, -1, -1, 1, 1, 1, -1, 1, 1, -1, -1, -1, 1, 1, -1, 1, 1, -1, -1, -1, 1, -1, -1, -1, 1, 1, 1, -1, 1, 1, -1, -1, 1, -1, 1, 1, 1, 1, 1, -1, -1, -1, 1, -1, -1, 1, 1, -1, 1, 1, 1, -1, -1, 1, -1, 1, 1, -1, 1, 1, 1, 1, -1, 1, -1, 1, 1, -1, 1, 1, -1, -1, -1, -1, 1, 1, 1, 1, -1, 1, 1, 1, -1, 1, -1, 1, 1, -1, 1, -1, -1, 1, -1, -1, 1, 1, 1, -1, 1, -1, 1, -1, -1, -1, 1, 1, -1, 1, 1, -1, -1, 1, -1, -1, 1, 1, -1, 1, 1, -1, 1, -1, 1, 1, 1, 1, -1, 1, 1, -1, 1, 1, 1, -1, 1, 1, -1, 1, 1, -1, 1, 1, -1, -1, 1, 1, 1, 1, 1, -1, 1, 1, 1, -1, 1, -1, 1, 1, 1, -1, 1, 1, -1, -1, 1, 1, 1, -1, 1, -1, 1, 1, 1, -1, 1, 1, -1, 1, 1, -1, 1, 1, 1, -1, -1, 1, -1, 1, 1, 1, -1, 1, 1, -1, 1, 1, 1, 1, 1, -1, 1, 1, 1, 1, -1, 1, -1, 1, 1, -1, 1, -1, 1, -1, 1, 1, -1, 1, 1, -1, 1, 1, 1, 1, -1, 1, -1, 1, 1, -1, -1, -1, 1, 1, 1, 1, -1, 1, 1, -1, 1, 1, 1, 1, 1, 1, -1, 1, 1, -1, -1, 1, 1, -1, 1, 1, 1, 1, 1, -1, -1, 1, 1, 1, -1, 1, 1, -1, 1, -1, 1, 1, -1, 1, 1, 1, 1, 1, -1, -1, -1, 1, -1, -1, -1, 1, 1, -1, 1, 1, -1, 1, 1, 1, -1, 1, 1, 1, 1, -1, -1, 1, 1, 1, -1, 1, 1, 1, -1, 1, -1, -1, 1, 1, -1, 1, 1, -1, -1, 1, -1, -1, 1, 1, 1, 1, 1, 1, -1, 1, -1, -1, 1, 1, 1, 1, 1, 1, 1, 1, -1, -1, -1, 1, -1, -1, 1, 1, 1, 1, -1, -1, 1, 1, 1, 1, 1, 1, -1, -1, -1, 1, 1, -1, -1, 1, 1, -1, -1, 1, -1, -1, 1, 1, 1, 1, 1, 1, 1, 1, -1, 1, 1, 1, 1, -1, 1, -1, -1, 1, -1, 1, 1, -1, 1, -1, 1, -1, -1, 1, -1, -1, 1, 1, 1, 1, 1, -1, 1, 1, -1, 1, 1, 1, 1, -1, 1, 1, -1, 1, -1, 1, 1, 1, 1, -1, -1, 1, -1, -1, 1, 1, 1, 1, -1, -1, -1, 1, 1, 1, -1, 1, 1, 1, 1, 1, -1, -1, 1, 1, 1, 1, 1, 1, 1, 1, -1, 1, -1, 1, -1, 1, 1, 1, 1, -1, -1, 1, 1, 1, 1, -1, 1, 1, 1, -1, -1, 1, 1, 1, -1, 1, 1, 1, 1, -1, 1, 1, -1, 1, -1, 1, 1, 1, 1, 1, -1, 1, 1, 1, -1, 1, 1, -1, 1, -1, 1, 1, -1, 1, 1, 1, 1, 1, -1, -1, 1, 1, 1, 1, -1, 1, 1, 1, 1, -1, 1, 1, 1, 1, -1, 1, 1, 1, 1, -1, -1, 1, 1, 1, -1, 1, 1, 1, 1, -1, -1, 1, -1, -1, -1, 1, 1, 1, 1, -1, 1, 1, -1, 1, -1, 1, 1, 1, 1, -1, -1, 1, 1, 1, -1, -1, 1, -1, 1, 1, 1, 1, -1, 1, -1, 1, 1, -1, 1, -1, 1, 1, 1, 1, 1, -1, -1, 1, -1, 1, 1, 1, -1, 1, -1, -1, -1, 1, -1, 1, 1, -1, -1, 1, -1, 1, 1, 1, -1, 1, -1, 1, 1, -1, -1, -1, 1, -1, 1, 1, 1, -1, 1, 1, -1, -1, 1, -1, 1, 1, -1, -1, 1, -1, -1, -1, 1, -1, 1, 1, 1, -1, 1, -1, -1, -1, 1, 1, 1, -1, 1, -1, 1, -1, 1, -1, 1, -1, 1, 1, 1, -1, -1, 1, -1, -1, -1, -1, 1, 1, 1, -1, -1, 1, -1, 1, 1, -1, 1, 1, 1, 1, -1, -1, -1, 1, 1, -1, 1, 1, 1, -1, 1, 1, -1, 1, 1, -1, -1, 1, 1, -1, -1, 1, -1, 1, 1, 1, -1, 1, 1, -1, 1, -1, 1, 1, 1, -1, 1, -1, -1, -1, -1, 1, 1, 1, 1, -1, 1, -1, 1, -1, -1, 1, -1, 1, 1, -1, 1, 1, -1, 1, 1, -1, 1, 1, 1, -1, 1, -1, 1, -1, -1, 1, -1, 1, 1, -1, 1, -1, -1, -1, 1, 1, 1, 1, 1, -1, 1, 1, -1, -1, 1, 1, -1, 1, 1, -1, 1, 1, -1, -1, -1, 1, 1, 1, 1, -1, -1, 1, -1, 1, 1, -1, 1, 1, 1, -1, -1, 1, -1, -1, 1, 1, -1, 1, -1, 1, -1, 1, -1, -1, 1, 1, 1, 1, 1, -1, -1, 1, -1, -1, 1, 1, -1, 1, 1, -1, -1, 1, 1, -1, 1, 1, -1, 1, -1, -1, 1, 1, -1, 1, 1, 1, -1, -1, -1, -1, 1, 1, -1, 1, 1, -1, -1, 1, -1, 1, -1, 1, -1, 1, -1, 1, 1, 1, 1, -1, 1, 1, -1, 1, -1, 1, -1, -1, 1, 1, -1, 1, 1, -1, -1, 1, 1, 1, -1, -1, 1, 1, 1, 1, -1, -1, 1, -1, -1, -1, 1, -1, 1, 1, 1, 1, 1, -1, 1, -1, 1, 1, 1, 1, 1, -1, 1, 1, -1, 1, -1, 1, -1, 1, 1, -1, 1, -1, 1, 1, 1, -1, -1, 1, 1, -1, 1, -1, 1, 1, -1, -1, -1, 1, 1, -1, 1, 1, 1, 1, 1, 1, -1, -1, -1, 1, 1, 1, -1, -1, 1, -1, 1, -1, -1, -1, 1, -1, -1, 1, -1, 1, 1, -1, -1, -1, 1, -1, -1, -1, -1, 1, -1, -1, 1, -1, 1, 1, -1, -1, -1, 1, -1, -1, -1, 1, 1, 1, 1, -1, -1, -1, 1, -1, 1, 1, 1, -1, -1, -1, -1, -1, -1, -1, 1, -1, -1, 1, -1, 1, -1, 1, 1, -1, -1, 1, 1, 1, -1, -1, 1, -1, 1, -1, 1, -1, 1, 1, -1, 1, -1, -1, 1, -1, -1, 1, 1, 1, -1, -1, -1, 1, -1, -1, 1, 1, -1, 1, 1, 1, -1, -1, 1, -1, -1, 1, -1, 1, -1, 1, 1, -1, -1, -1, 1, 1, -1, 1, 1, 1, -1, -1, 1, 1, 1, -1, 1, 1, -1, 1, -1, 1, 1, 1, -1, -1, -1, 1, 1, 1, -1, -1, 1, -1, 1, -1, 1, 1, 1, 1, -1, -1, 1, -1, -1, -1, -1, 1, 1, 1, 1, -1, 1, -1, -1, 1, -1, 1, -1, 1, 1, -1, 1, -1, 1, -1, -1, 1, 1, 1, 1, -1, -1, -1, 1, 1, -1, 1, 1, 1, 1, -1, -1, -1, -1, 1, -1, 1, 1, 1, 1, -1, -1, 1, -1, 1, -1, 1, 1, 1, 1, 1, -1, 1, -1, 1, -1, -1, 1, 1, -1, 1, -1, 1, 1, 1, -1, 1, 1, -1, 1, 1, -1, 1, 1, -1, -1, 1, -1, 1, -1, -1, -1, 1, 1, 1, -1, -1, -1, 1, 1, 1, -1, 1, 1, 1, -1, 1, -1, 1, 1, 1, -1, 1, 1, -1, 1, 1, -1, 1, -1, -1, 1, 1, -1, 1, -1, -1, -1, 1, -1, -1, 1, 1, 1, -1, 1, -1, -1, -1, 1, 1, 1, 1, 1, -1, -1, -1, 1, -1, 1, -1, 1, 1, 1, -1, 1, -1, -1, 1, -1, 1, -1, 1, -1, 1, -1, -1, -1, 1, 1, 1, 1, 1, 1, -1, -1, -1, -1, 1, -1, 1, 1, -1, 1, 1, -1, -1, -1, 1, -1, 1, -1, 1, 1, -1, -1, -1, -1, 1, -1, 1, 1, -1, 1, -1, -1, -1, -1, -1, -1, 1, 1, 1, -1, -1, 1, -1, 1, 1, -1, 1, -1, 1, 1, -1, -1, -1, 1, -1, -1, 1, -1, 1, 1, -1, -1, -1, -1, -1, 1, 1, -1, 1, -1, -1, -1, -1, -1, 1, -1, 1, -1, -1, 1, -1, 1, -1, 1, -1, -1, 1, -1, 1, 1, -1, 1, -1, -1, 1, -1, 1, -1, -1, 1, -1, 1, -1, 1, -1, -1, -1, -1, -1, -1, -1, -1, -1, -1, 1, -1, 1, -1, 1, -1, 1, -1, -1, -1, 1, -1, -1, 1, -1, 1, 1, -1, -1, -1, 1, -1, -1, -1, -1, -1, 1, -1, -1, -1, 1, -1, 1, -1, 1, 1, -1, -1, -1, 1, -1, 1, -1, 1, -1, 1, 1, 1, -1, 1, -1, -1, 1, -1, 1, 1, 1, 1, -1, -1, -1, 1, -1, -1, 1, -1, -1, -1, -1, 1, -1, 1, 1, 1, 1, -1, 1, -1, -1, -1, -1, -1, -1, -1, -1, 1, -1, -1, -1, -1, -1, -1, 1, 1, -1, 1, 1, -1, -1, -1, -1, -1, -1, 1, -1, -1, 1, -1, 1, -1, 1, -1, -1, 1, 1, -1, 1, -1, -1, -1, 1, -1, 1, 1, -1, -1, -1, 1, -1, -1, 1, -1, 1, 1, -1, -1, 1, -1, 1, -1, 1, -1, 1, 1, 1, -1, -1, 1, -1, -1, 1, -1, 1, 1, -1, 1, 1, -1, -1, -1, 1, 1, -1, 1, -1, 1, -1, 1, 1, -1, 1, 1, -1, 1, -1, -1, -1, 1, -1, -1, 1, -1, -1, 1, -1, -1, 1, 1, -1, -1, 1, 1, 1, 1, 1, -1, 1, 1, -1, -1, 1, 1, -1, 1, -1, -1, -1, 1, -1, -1, 1, 1, -1, 1, 1, -1, -1, 1, -1, -1, 1, 1, 1, 1, -1, 1, -1, 1, -1, 1, 1, 1, 1, -1, 1, -1, -1, -1, 1, 1, -1, 1, 1, 1, 1, -1, -1, 1, -1, -1, 1, 1, 1, -1, 1, -1, -1, -1, -1, 1, -1, 1, 1, 1, 1, -1, -1, 1, 1, 1, 1, 1, -1, 1, -1, -1, -1, 1, 1, 1, -1, 1, -1, 1, -1, -1, -1, -1, 1, -1, 1, 1, 1, 1, 1, -1, -1, 1, 1, -1, 1, 1, -1, 1, -1, -1, -1, -1, 1, 1, -1, 1, -1, 1, 1, -1, 1, -1, 1, 1, -1, 1, -1, 1, -1, -1, -1, -1, 1, 1, -1, 1, -1, -1, 1, -1, 1, -1, 1, 1, -1, -1, 1, -1, 1, -1, 1, -1, 1, 1, -1, -1, -1, -1, 1, -1, 1, -1, 1, 1, -1, -1, 1, 1, 1, -1, 1, -1, -1, 1, -1, 1, 1, -1, 1, -1, 1, -1, 1, -1, -1, -1, -1, 1, 1, 1, -1, -1, 1, 1, 1, -1, 1, -1, 1, 1, -1, -1, 1, -1, -1, -1, 1, -1, 1, -1, 1, -1, 1, 1, -1, -1, 1, 1, 1, 1, 1, -1, 1, -1, 1, -1, 1, -1, 1, -1, 1, -1, 1, 1, -1, -1, 1, 1, -1, 1, -1, -1, 1, 1, -1, -1, -1, -1, 1, 1, 1, -1, 1, -1, -1, 1, -1, 1, 1, 1, -1, -1, 1, -1, -1, 1, 1, 1, -1, 1, -1, -1, -1, 1, -1, -1, -1, 1, -1, 1, 1, -1, 1, -1, -1, -1, -1, 1, 1, 1, -1, -1, -1, -1, 1, -1, 1, 1, -1, 1, -1, -1, 1, -1, -1, 1, -1, 1, -1, -1, -1, -1, 1, -1, -1, 1, -1, 1, -1, 1, -1, -1, -1, -1, 1, -1, 1, 1, -1, 1, -1, -1, -1, -1, 1, -1, 1, -1, -1, 1, -1, 1, -1, -1, -1, 1, -1, 1, -1, -1, 1, -1, -1, -1, 1, 1, 1, 1, -1, -1, -1, -1, 1, -1, -1, 1, -1, -1, -1, 1, -1, 1, -1, 1, -1, 1, 1, 1, -1, -1, -1, 1, -1, -1, -1, 1, -1, -1, 1, -1, -1, 1, -1, -1, 1, 1, -1, 1, -1, 1, -1, 1, 1, -1, -1, 1, -1, -1, -1, 1, -1, -1, 1, -1, -1, 1, 1, -1, 1, -1, -1, -1, 1, -1, 1, -1, 1, -1, -1, -1, -1, 1, -1, -1, -1, 1, 1, -1, 1, -1, -1, 1, -1, 1, 1, 1, 1, -1, 1, 1, -1, 1, -1, 1, 1, 1, -1, 1, 1, -1, -1, 1, -1, 1, 1, -1, 1, -1, 1, -1, -1, 1, 1, 1, 1, 1, 1, -1, 1, -1, 1, -1, 1, 1, -1, -1, -1, -1, 1, -1, -1, 1, -1, -1, 1, 1, -1, -1, 1, 1, -1, 1, -1, -1, 1, 1, -1, 1, 1, -1, -1, -1, 1, 1, 1, -1, 1, -1, 1, -1, 1, -1, 1, -1, 1, 1, -1, -1, 1, -1, -1, 1, 1, 1, 1, 1, 1, -1, 1, 1, -1, 1, 1, 1, 1, 1, -1, -1, 1, 1, -1, -1, 1, 1, 1, 1, 1
BQP_DATA, 2396, 11083, -5177.000000, -6335.000000, -14840.000000, -15998.000000, 8192.002130, 7182, 1788
